This is Ipopt version 3.10.1, running with linear solver mumps.

Number of nonzeros in equality constraint Jacobian...:      177
Number of nonzeros in inequality constraint Jacobian.:        0
Number of nonzeros in Lagrangian Hessian.............:     3324

Total number of variables............................:       90
                     variables with only lower bounds:        0
                variables with lower and upper bounds:       90
                     variables with only upper bounds:        0
Total number of equality constraints.................:       59
Total number of inequality constraints...............:        0
        inequality constraints with only lower bounds:        0
   inequality constraints with lower and upper bounds:        0
        inequality constraints with only upper bounds:        0

iter    objective    inf_pr   inf_du lg(mu)  ||d||  lg(rg) alpha_du alpha_pr  ls
   0 -7.3429120e-04 1.04e-12 4.13e-04  -1.0 0.00e+00    -  0.00e+00 0.00e+00   0
   1 -6.8518062e-04 1.71e-10 6.62e-05  -1.7 1.71e-02    -  9.99e-01 1.00e+00f  1
   2 -5.9252665e-04 4.44e-16 2.65e-05  -2.5 4.30e-02    -  1.00e+00 1.00e+00f  1
   3 -5.9082446e-04 2.22e-16 1.58e-06  -3.8 1.74e-02    -  1.00e+00 1.00e+00f  1
   4 -7.2330115e-04 2.22e-16 2.81e-04  -5.7 2.68e-02  -2.0 9.61e-01 1.00e+00f  1
   5 -2.2718563e-03 2.22e-16 1.98e-03  -5.7 1.35e+00  -2.5 3.73e-01 8.14e-02f  1
   6 -2.7072282e-03 2.22e-16 1.26e-03  -5.7 1.68e-02  -1.1 1.00e+00 1.00e+00f  1
   7 -3.3016108e-03 2.22e-16 4.76e-03  -5.7 1.25e-01  -1.6 1.00e+00 1.40e-01f  1
   8 -3.2967002e-03 2.22e-16 1.57e-03  -5.7 1.49e-01  -2.1 3.18e-01 9.77e-04f 11
   9 -4.0390960e-03 3.33e-13 2.58e-02  -5.7 4.88e-01  -1.7 1.00e+00 3.83e-02f  1
iter    objective    inf_pr   inf_du lg(mu)  ||d||  lg(rg) alpha_du alpha_pr  ls
  10 -6.7343339e-03 1.16e-12 3.69e-03  -5.7 5.23e-02  -1.3 1.00e+00 1.00e+00f  1
  11 -6.8491251e-03 1.16e-12 3.54e-03  -5.7 2.59e-02  -0.8 1.00e+00 5.60e-02f  1
  12 -1.0281728e-02 2.02e-12 2.05e-02  -5.7 1.90e-01  -1.3 1.00e+00 1.88e-01f  1
  13 -1.3100767e-02 1.14e-12 7.89e-03  -5.7 6.35e-02  -0.9 1.00e+00 4.37e-01f  1
  14 -1.3098162e-02 1.14e-12 6.80e-03  -5.7 3.87e-01  -1.4 2.44e-02 6.10e-05f 15
  15 -1.3087596e-02 1.14e-12 6.80e-03  -5.7 2.89e+01  -0.9 6.81e-04 1.38e-05f 10
  16 -1.4363832e-02 6.79e-13 7.48e-03  -5.7 2.65e-02  -0.5 1.00e+00 4.02e-01f  1
  17 -1.5636261e-02 6.40e-13 2.91e-02  -5.7 1.72e-01  -1.0 1.00e+00 5.80e-02f  1
  18 -1.5634824e-02 6.40e-13 2.33e-02  -5.7 2.81e-01  -1.5 7.99e-02 4.56e-05f 14
  19 -1.7478914e-02 6.04e-13 2.61e-02  -5.7 2.57e-01  -1.0 2.08e-01 5.61e-02f  1
iter    objective    inf_pr   inf_du lg(mu)  ||d||  lg(rg) alpha_du alpha_pr  ls
  20 -2.0259445e-02 9.91e-12 1.75e-02  -5.7 6.94e-02  -0.6 5.79e-01 1.00e+00f  1
  21 -2.1916692e-02 1.00e-11 2.49e-02  -5.7 1.31e+00  -1.1 6.80e-02 8.47e-03f  1
  22 -2.4758640e-02 5.81e-12 2.62e-02  -5.7 5.95e-02  -0.7 1.00e+00 2.66e-01f  1
  23 -1.3082339e-02 5.77e-12 3.63e-02  -5.7 1.39e+01  -1.1 1.46e-03 7.62e-03h  1
  24 -1.3055185e-02 5.72e-12 9.35e-02  -5.7 5.42e-01  -0.7 2.54e-01 8.22e-03f  6
  25 -1.3259081e-02 5.66e-12 7.53e-02  -5.7 2.04e-01  -1.2 2.85e-01 1.08e-02f  1
  26 -1.7805896e-02 2.22e-16 7.91e-03  -5.7 4.13e-02  -0.8 1.00e+00 1.00e+00F  1
  27 -2.2011010e-02 2.22e-16 9.30e-02  -5.7 2.05e+00  -1.2 2.53e-01 1.51e-02f  1
  28 -2.8911030e-02 2.22e-16 1.30e-02  -5.7 9.47e-02  -0.8 1.00e+00 4.62e-01f  1
  29 -3.1905478e-02 4.44e-16 1.96e-02  -5.7 3.45e-02  -0.4 1.00e+00 4.69e-01f  1
iter    objective    inf_pr   inf_du lg(mu)  ||d||  lg(rg) alpha_du alpha_pr  ls
  30 -3.6324970e-02 4.44e-16 8.10e-02  -5.7 1.99e-01  -0.9 1.00e+00 1.08e-01f  1
  31 -3.8485533e-02 1.36e-12 2.18e-02  -5.7 5.37e-02  -0.4 1.00e+00 2.06e-01f  1
  32 -4.4190947e-02 3.63e-12 1.22e-01  -5.7 3.19e-01  -0.9 9.41e-01 8.61e-02f  1
  33 -5.1490230e-02 1.92e-12 1.91e-02  -5.7 6.71e-02  -0.5 1.00e+00 4.70e-01f  1
  34 -5.4300423e-02 3.03e-12 1.27e-01  -5.7 1.27e+00  -1.0 2.28e-01 1.05e-02f  1
  35 -6.9043934e-02 1.17e-11 2.73e-02  -5.7 8.91e-02  -0.5 7.94e-01 6.79e-01f  1
  36 -5.7867766e-02 1.07e-11 4.34e-02  -5.7 7.98e-01  -1.0 4.13e-03 8.39e-02h  1
  37 -5.8285850e-02 1.01e-11 1.54e-01  -5.7 3.42e-01  -0.6 5.02e-01 1.86e-02f  1
  38 -6.0143174e-02 1.12e-11 1.48e-01  -5.7 1.27e+01  -1.1 1.46e-02 8.98e-04f  2
  39 -6.6575374e-02 8.36e-12 5.38e-02  -5.7 1.05e-01  -0.6 9.54e-01 2.52e-01f  1
iter    objective    inf_pr   inf_du lg(mu)  ||d||  lg(rg) alpha_du alpha_pr  ls
  40 -7.6617960e-02 1.29e-11 2.14e-02  -5.7 3.55e-02  -0.2 1.00e+00 1.00e+00f  1
  41 -9.1507452e-02 1.81e-11 3.36e-02  -5.7 2.64e-01  -0.7 4.52e-01 1.70e-01f  1
  42 -9.7450212e-02 1.59e-11 5.93e-02  -5.7 7.23e-02  -0.3 1.00e+00 2.28e-01f  1
  43 -1.0092795e-01 1.57e-11 2.97e-01  -5.7 6.02e-01  -0.7 5.93e-01 1.80e-02f  1
  44 -1.3467742e-01 2.70e-11 3.90e-02  -5.7 7.32e-02  -0.3 1.00e+00 1.00e+00f  1
  45 -7.0223844e-02 1.45e-11 1.76e-01  -5.7 7.10e-01  -0.8 9.23e-02 4.64e-01h  1
  46 -7.2836227e-02 9.40e-12 7.99e-02  -5.7 2.41e-02  -0.4 1.00e+00 3.51e-01f  1
  47 -8.3763841e-02 5.59e-12 4.92e-02  -5.7 8.85e-02  -0.8 1.00e+00 4.05e-01f  1
  48 -9.0192411e-02 5.23e-12 6.34e-02  -5.7 4.40e-01  -1.3 3.79e-01 6.42e-02f  1
  49 -9.7145283e-02 3.96e-12 4.06e-02  -5.7 1.11e-01  -0.9 1.00e+00 2.44e-01f  1
iter    objective    inf_pr   inf_du lg(mu)  ||d||  lg(rg) alpha_du alpha_pr  ls
  50 -1.0548648e-01 3.84e-12 8.90e-02  -5.7 1.33e+00  -1.4 1.66e-01 2.87e-02f  1
  51 -1.2120582e-01 2.31e-12 1.12e-01  -5.7 1.20e-01  -0.9 1.73e-01 3.98e-01f  1
  52 -1.3108029e-01 2.30e-12 1.82e-01  -5.7 4.12e+00  -1.4 3.64e-02 7.17e-03f  1
  53 -1.3663446e-01 2.07e-12 1.80e-01  -5.7 4.18e-01  -1.0 7.84e-03 1.01e-01f  1
  54 -1.3904674e-01 2.00e-12 1.81e-01  -5.7 5.32e-01  -1.5 2.03e-01 3.21e-02f  1
  55 -1.4006315e-01 1.99e-12 1.74e-01  -5.7 1.01e+00  -1.0 1.81e-02 6.51e-03f  1
  56 -1.4248932e-01 1.97e-12 1.70e-01  -5.7 2.20e+00    -  2.12e-03 7.07e-03f  1
  57 -1.4247901e-01 1.97e-12 1.53e-01  -5.7 1.10e-01  -1.5 2.26e-01 1.85e-03f  5
  58 -1.4216247e-01 1.75e-12 1.42e-01  -5.7 1.08e-01  -2.0 3.47e-02 1.09e-01h  1
  59 -1.4215218e-01 1.74e-12 1.35e-01  -5.7 1.04e-01    -  9.09e-01 7.81e-03f  8
iter    objective    inf_pr   inf_du lg(mu)  ||d||  lg(rg) alpha_du alpha_pr  ls
  60 -1.4153700e-01 2.22e-16 2.51e-03  -5.7 1.04e-01    -  1.00e+00 1.00e+00h  1
  61 -1.4155030e-01 1.88e-11 3.71e-03  -5.7 1.85e-02    -  1.84e-01 5.00e-01f  2
  62 -1.4161701e-01 1.36e-12 1.51e-03  -5.7 6.96e-03  -0.7 1.00e+00 1.00e+00f  1
  63 -1.4166044e-01 3.66e-13 1.73e-03  -5.7 3.05e-03  -0.2 1.00e+00 1.00e+00f  1
  64 -1.4233736e-01 2.41e-12 4.65e-03  -5.7 2.22e-02  -0.7 9.98e-01 1.00e+00f  1
  65 -1.4473377e-01 8.80e-13 1.00e-02  -5.7 1.15e-01  -1.2 5.89e-01 6.35e-01h  1
  66 -1.4820203e-01 1.03e-11 6.15e-03  -5.7 2.93e-02  -0.8 1.00e+00 1.00e+00f  1
  67 -1.4940481e-01 3.39e-12 5.65e-03  -5.7 1.31e-02  -0.3 1.00e+00 6.71e-01f  1
  68 -1.5552517e-01 9.57e-12 1.55e-02  -5.7 4.88e-02  -0.8 7.26e-01 1.00e+00f  1
  69 -1.5581843e-01 9.01e-12 6.33e-02  -5.7 2.76e-01  -1.3 4.29e-01 5.82e-02f  1
iter    objective    inf_pr   inf_du lg(mu)  ||d||  lg(rg) alpha_du alpha_pr  ls
  70 -1.7480126e-01 2.22e-16 1.23e-01  -5.7 1.11e-01  -0.9 1.73e-01 1.00e+00f  1
  71 -1.9424394e-01 2.22e-16 2.68e-01  -5.7 3.90e-01  -1.4 3.26e-02 3.28e-01f  1
  72 -1.9423673e-01 2.22e-16 2.70e-01  -5.7 6.39e-01    -  1.87e-02 9.96e-05f  8
  73 -2.0798593e-01 8.77e-12 2.82e-01  -5.7 3.52e+00  -0.9 3.93e-03 9.98e-03f  1
  74 -2.0797703e-01 8.77e-12 2.82e-01  -5.7 5.23e-01  -1.4 6.32e-05 4.19e-05f 12
  75 -2.0798735e-01 8.76e-12 2.54e-01  -5.7 4.44e-02  -0.1 1.15e-01 3.11e-04f  2
  76 -2.4139758e-01 2.16e-11 2.85e-01  -5.7 5.88e-01  -0.6 7.28e-03 9.90e-02f  1
  77 -2.5066354e-01 1.90e-11 3.03e-01  -5.7 6.50e-01  -1.0 3.35e-02 1.24e-01f  1
  78 -2.5475611e-01 3.25e-11 2.51e-01  -5.7 3.00e-02   0.3 1.70e-01 1.59e-01f  1
  79 -2.8164465e-01 3.92e-11 2.60e-01  -5.7 1.41e-01  -0.2 1.03e-01 2.49e-01f  1
iter    objective    inf_pr   inf_du lg(mu)  ||d||  lg(rg) alpha_du alpha_pr  ls
  80 -2.9375161e-01 3.79e-11 1.32e-01  -5.7 4.31e-02   0.2 5.10e-01 3.16e-01f  1
  81 -3.0532436e-01 3.59e-11 1.52e-01  -5.7 2.60e-01  -0.2 2.91e-01 5.26e-02f  1
  82 -3.1834066e-01 2.98e-11 1.62e-01  -5.7 5.53e-02   0.2 1.00e+00 2.92e-01f  1
  83 -3.1880392e-01 2.96e-11 1.62e-01  -5.7 1.29e-01  -0.3 4.97e-01 5.94e-03f  1
  84 -3.1879870e-01 2.96e-11 1.56e-01  -5.7 4.02e-01  -0.8 1.37e-01 2.51e-04f  9
  85 -3.3102104e-01 2.93e-11 4.24e-01  -5.7 3.41e+00  -1.2 1.12e-01 1.02e-02f  1
  86 -3.4476429e-01 4.49e-11 3.35e-02  -5.7 2.26e-02   0.1 1.00e+00 8.15e-01f  1
  87 -3.4560401e-01 4.43e-11 1.54e-01  -5.7 1.01e-01  -0.4 1.00e+00 1.34e-02f  1
  88 -3.4875044e-01 3.42e-11 1.55e-01  -5.7 2.57e-02   0.0 1.00e+00 2.28e-01f  1
  89 -3.4066053e-01 2.22e-16 1.41e-02  -5.7 4.99e-02    -  1.00e+00 1.00e+00h  1
iter    objective    inf_pr   inf_du lg(mu)  ||d||  lg(rg) alpha_du alpha_pr  ls
  90 -3.4055858e-01 2.22e-16 5.80e-03  -5.7 5.75e-03    -  1.00e+00 5.00e-01h  2
  91 -3.4069066e-01 2.22e-16 1.30e-03  -5.7 3.45e-03  -0.4 1.00e+00 1.00e+00f  1
  92 -3.4062046e-01 2.22e-16 3.36e-03  -5.7 6.33e-03    -  1.00e+00 2.50e-01h  3
  93 -3.4066853e-01 2.22e-16 1.16e-03  -5.7 1.17e-03  -0.0 1.00e+00 1.00e+00f  1
  94 -3.4053090e-01 2.22e-16 2.09e-04  -5.7 5.93e-03    -  1.00e+00 1.00e+00h  1
  95 -3.4053090e-01 2.22e-16 1.40e-04  -5.7 5.48e-05    -  1.00e+00 1.56e-02h  7
  96 -3.4053092e-01 2.22e-16 7.70e-05  -5.7 4.31e-05  -0.5 1.00e+00 5.00e-01h  2
  97 -3.4053095e-01 2.22e-16 3.85e-05  -5.7 6.17e-05    -  1.00e+00 5.00e-01h  2
  98 -3.4053095e-01 2.22e-16 3.73e-05  -5.7 3.08e-05    -  1.00e+00 3.12e-02h  6
  99 -3.4053097e-01 6.66e-16 3.11e-09  -5.7 2.99e-05    -  1.00e+00 1.00e+00s 22
iter    objective    inf_pr   inf_du lg(mu)  ||d||  lg(rg) alpha_du alpha_pr  ls
 100 -3.4060471e-01 6.00e-15 7.03e-08  -8.6 9.32e-05    -  1.00e+00 1.00e+00f  1
 101 -3.4060468e-01 1.78e-15 2.02e-08  -8.6 1.85e-07  -1.0 1.00e+00 1.00e+00h  1
 102 -3.4060475e-01 2.90e-13 9.74e-08  -9.0 3.35e-07  -0.5 1.00e+00 1.00e+00h  1
 103 -3.4060475e-01 4.44e-16 1.30e-12  -9.0 4.64e-07    -  1.00e+00 1.00e+00h  1

Number of Iterations....: 103

                                   (scaled)                 (unscaled)
Objective...............:  -3.4060474721831890e-01   -3.4060474721831890e-01
Dual infeasibility......:   1.2992186419213513e-12    1.2992186419213513e-12
Constraint violation....:   4.4408920985006262e-16    4.4408920985006262e-16
Complementarity.........:   9.1448004210387547e-10    9.1448004210387547e-10
Overall NLP error.......:   9.1448004210387547e-10    9.1448004210387547e-10


Number of objective function evaluations             = 245
Number of objective gradient evaluations             = 104
Number of equality constraint evaluations            = 245
Number of inequality constraint evaluations          = 0
Number of equality constraint Jacobian evaluations   = 1
Number of inequality constraint Jacobian evaluations = 0
Number of Lagrangian Hessian evaluations             = 103
Total CPU secs in IPOPT (w/o function evaluations)   =      0.360
Total CPU secs in NLP function evaluations           =      3.730

EXIT: Optimal Solution Found.
